<number of tasks>
50

<cycle time>
1000

<order strength>
0.196


<task times>
1 26
2 105
3 98
4 154
5 251
6 36
7 255
8 94
9 204
10 26
11 155
12 32
13 52
14 25
15 155
16 45
17 37
18 161
19 61
20 136
21 121
22 207
23 120
24 34
25 30
26 69
27 105
28 306
29 127
30 166
31 80
32 151
33 167
34 21
35 105
36 199
37 114
38 150
39 164
40 251
41 248
42 21
43 194
44 32
45 83
46 149
47 29
48 178
49 70
50 109

<precedence relations>
1,8
2,9
3,26
4,10
6,7
6,10
6,11
6,12
6,13
7,36
8,17
9,18
10,14
10,20
10,21
12,15
12,22
13,16
13,19
13,22
14,36
15,36
16,23
18,26
20,24
20,25
21,39
21,40
23,27
24,50
25,28
25,30
26,29
27,31
28,32
28,33
29,34
30,35
31,36
32,37
33,38
33,41
34,40
35,39
36,42
36,43
36,44
36,45
37,47
38,46
39,48
39,49
41,50

<end>
